120
150
55
43
52
59
47
48
54
44
56
54
54
48
56
43
52
40
55
57
49
52
52
53
44
54
43
60
44
53
56
54
53
46
49
56
45
57
48
56
49
43
55
46
49
51
57
58
47
45
51
58
54
53
45
49
60
54
49
47
51
49
52
50
51
51
54
47
43
58
47
54
52
49
45
54
41
49
54
47
59
42
60
45
45
51
43
51
49
58
55
49
44
48
47
51
59
43
55
51
52
41
46
52
44
53
48
59
53
41
49
47
46
58
45
44
57
52
49
46
40
52
